50

100 28 307
97 13 296
97 27 292
95 12 354
93 22 343
87 22 360
87 8 298
86 9 291
82 19 343
82 41 338
78 20 242
76 1 247
76 12 329
75 6 297
74 31 238
71 4 293
68 20 289
66 33 308
65 16 308
63 7 313
59 17 228
59 28 238
58 26 341
58 0 354
57 5 314
52 25 341
51 3 224
46 12 336
46 4 305
46 19 275
43 4 342
42 14 334
42 2 341
41 21 278
41 12 290
41 10 237
38 10 147
37 3 342
36 13 357
36 10 249
32 12 166
32 1 193
31 11 245
30 0 319
27 9 144
25 3 80
22 2 208
22 8 291
22 5 303
21 11 248
